!B3LYP D3 DEF2-SVP KEEPDENS

* xyz -1 2
  C   -2.22228878158883      3.02859625455643     -0.21035396487253
  C   -2.50830439779609      1.54791789780224      0.07602730919541
  O   -1.28019171891555      0.86292489456393     -0.19752365471928
  H   -3.29279866693753      1.11226368229766     -0.55882412139207
  H   -2.78129033761928      1.38083967617559      1.13343223202784
  C   -0.73508193412564      3.12413342164026      0.12809792804256
  H   -2.86397098602036      3.70229449871120      0.37527275872271
  H   -2.38623672040265      3.24574776644390     -1.27800975944110
  C   -0.21849123873636      1.71461968337449     -0.15303530810893
  H   -0.56392689440653      3.33449540230340      1.19850628759754
  H   -0.16145763230755      3.86205509865162     -0.44841287057201
  O   0.91007930885637      1.34911172347926     -0.30702683648014
*