!B3LYP D3 DEF2-SVP OPT KEEPDENS

* xyz 0 1 
C         -2.19840        3.00305       -0.20666
C         -2.50179        1.55642        0.08284
O         -1.29812        0.85411       -0.22491
H         -3.31949        1.17786       -0.53711
H         -2.74629        1.38587        1.13674
C         -0.73652        3.10508        0.14798
H         -2.83435        3.69747        0.34848
H         -2.33068        3.20260       -1.27718
C         -0.24607        1.72326       -0.16280
H         -0.58903        3.30540        1.21300
H         -0.22545        3.85317       -0.46203
O          0.92223        1.40071       -0.30020
*