!QM/QM2 B3LYP DEF2-TZVP OPT CPCM(CH2CL2) D4
%QMMM  QM2CUSTOMMETHOD "HF-3c DEF2-SVP OPT"
	QMATOMS {47:50} {2:8} {11:13} {22:23} {16:18} {21} {59} {57} {36} END
END

* xyz 0 1
   C        3.46996        2.77238       -0.57067
   C        4.00341        1.55039       -0.93774
   C        2.87916        0.62887       -0.93527
   C        2.02937        2.56320       -0.35122
   N        1.72550        1.34316       -0.56766
   C        1.06452        3.60459        0.10310
   C       -0.28513        3.50340        0.23654
   N       -1.06520        2.42359       -0.03668
   C       -2.32929        2.75750        0.32332
   C       -1.06759        4.52972        0.73758
   C       -2.35949        4.05698        0.79381
   C       -3.41450        1.96721        0.27089
   C       -3.41470        0.56935       -0.18830
   N       -2.35469       -0.07924       -0.48748
   C       -4.16254       -1.51648       -0.70674
   C       -4.60645       -0.27064       -0.31637
   C       -0.34787       -2.25978       -1.18665
   N        0.42644       -1.13903       -1.09661
   C        1.70819       -1.54376       -1.25876
   C        1.74858       -2.91785       -1.43568
   C        0.44881       -3.36604       -1.38858
   C        2.91089       -0.68103       -1.22408
   C       -1.83780       -2.37939       -1.08403
   C       -2.70614       -1.39778       -0.79747
   H        4.02008        3.69772       -0.47671
   H        5.03602        1.34035       -1.18562
   H        1.52212        4.55154        0.37719
   H       -0.73208        5.50370        1.07250
   H       -3.22010        4.59233        1.17599
   H       -4.36846        2.37203        0.59978
   H       -4.78509       -2.38123       -0.89467
   H       -5.63441        0.02242       -0.14417
   H        2.62341       -3.54274       -1.55801
   H        0.11476       -4.39449       -1.46871
   H        3.86510       -1.14184       -1.46612
   H       -2.26199       -3.36485       -1.26278
  Fe       -0.29426        0.66645       -0.56440
   N        1.58640        4.42663       -5.39579
   C        2.13875        3.11413       -5.75417
   C        2.97714        3.30220       -7.00743
   O        2.42202        3.77758       -8.14614
   O        4.18019        3.08622       -6.97120
   C        1.01434        2.03320       -5.92983
   H        1.43877        1.08292       -6.31329
   H        0.31561        2.43153       -6.69690
   C        0.22781        1.75499       -4.64507
   N       -0.96875        2.31131       -4.39053
   C       -1.24300        2.03730       -3.10083
   H       -2.13724        2.37058       -2.59381
   N       -0.31448        1.24088       -2.53590
   C        0.59438        1.00559       -3.52017
   H        1.51925        0.46280       -3.38912
   H       -1.54456        2.89332       -5.03746
   H        1.05487        4.38360       -4.49918
   H        0.96205        4.79139       -6.15448
   H        2.82310        2.78660       -4.94143
   H        2.96105        3.96512       -8.93090
   C        0.35047       -0.76500        1.63995
   O        1.01756       -1.69260        1.98668
   O       -0.30537        0.15766        1.26355
*