!B3LYP DEF2-TZVP OPT CPCM(CH2CL2) D4

* xyz 0 1
   C        4.10563        1.65677        0.15322
   C        4.55192        0.42318       -0.27137
   C        3.36423       -0.41588       -0.29816
   C        2.64846        1.53323        0.35512
   N        2.25321        0.35165        0.08344
   C        1.74367        2.63265        0.76124
   C        0.38991        2.59470        0.87559
   N       -0.43919        1.52974        0.69037
   C       -1.70572        1.97367        0.86306
   C       -0.35594        3.71265        1.18498
   C       -1.68151        3.32953        1.15846
   C       -2.83262        1.22839        0.78448
   C       -2.88449       -0.24312        0.55768
   N       -1.85239       -0.97005        0.35684
   C       -3.67672       -2.38936        0.45390
   C       -4.09238       -1.07886        0.61388
   C        0.06432       -3.25237       -0.23745
   N        0.82667       -2.12964       -0.28440
   C        2.09752       -2.53961       -0.53886
   C        2.13899       -3.91183       -0.64510
   C        0.85634       -4.36474       -0.44905
   C        3.32352       -1.71477       -0.59305
   C       -1.40037       -3.34793        0.03028
   C       -2.23229       -2.31702        0.26504
   H        4.72712        2.53134        0.29376
   H        5.57171        0.14831       -0.51569
   H        2.24446        3.57968        0.94737
   H        0.02885        4.70588        1.38592
   H       -2.52528        3.97907        1.34800
   H       -3.78422        1.72686        0.94738
   H       -4.30579       -3.27040        0.45107
   H       -5.11172       -0.75094        0.76545
   H        3.02163       -4.51894       -0.79718
   H        0.54460       -5.40016       -0.42881
   H        4.25626       -2.21326       -0.84464
   H       -1.83302       -4.34496        0.00286
  Fe        0.16124       -0.30234        0.20682
   N        1.70100        0.84687        6.36173
   C        0.33686        0.37482        6.58779
   C        0.15597        0.07281        8.05890
   O        0.94301       -0.85610        8.65154
   O       -0.69313        0.65905        8.71248
   C        0.03901       -0.90080        5.79116
   H       -1.04827       -1.12812        5.86237
   H        0.57442       -1.75074        6.26904
   C        0.45055       -0.92725        4.34448
   N        1.25377       -1.89823        3.88866
   C        1.27041       -1.77136        2.56557
   H        1.81147       -2.45136        1.94052
   N        0.53587       -0.72524        2.14393
   C        0.05560       -0.13705        3.26649
   H       -0.62981        0.70093        3.28541
   H        1.72400       -2.65227        4.43407
   H        1.78907        1.18097        5.37489
   H        2.38258        0.06852        6.51630
   H       -0.37374        1.17042        6.27006
   H        0.86523       -1.07725        9.59042
   O       -0.75368        1.06742       -1.93269
   O       -0.19775        0.10446       -1.62485
*