!B3LYP D3 DEF2-SVP KEEPDENS

* xyz 1 2
  C      -2.198400      3.003050     -0.206660
  C      -2.501790      1.556420      0.082840
  O      -1.298120      0.854110     -0.224910
  H      -3.319490      1.177860     -0.537110
  H      -2.746290      1.385870      1.136740
  C      -0.736520      3.105080      0.147980
  H      -2.834350      3.697470      0.348480
  H      -2.330680      3.202600     -1.277180
  C      -0.246070      1.723260     -0.162800
  H      -0.589030      3.305400      1.213000
  H      -0.225450      3.853170     -0.462030
  O       0.922230      1.400710     -0.300200
*