!B3LYP DEF2-TZVP OPT FREQ

* xyz 0 1
   C       -4.12724        1.59809        0.00000
   C       -5.23614        0.75309        0.00000
   C       -5.05879       -0.62975        0.00000
   C       -3.77255       -1.16759        0.00000
   C       -2.66365       -0.32259        0.00000
   C       -2.84099        1.06025        0.00000
   H       -4.26555        2.67655        0.00000
   H       -1.97617        1.71926        0.00000
   H       -1.66052       -0.74204        0.00000
   H       -3.63424       -2.24605        0.00000
   H       -5.92362       -1.28876        0.00000
   H       -6.23927        1.17254        0.00000
*