!B3LYP DEF2-SVP FREQ

* xyz 0 1
   C        2.77902        2.33714       -3.56558
   O        1.97196        3.20221       -3.36556
   O        3.56412        1.46259       -3.78648
   C        0.60339        5.89678       -2.07378
   C        2.95432        5.17091       -5.75427
   C        5.43655       -1.02628       -4.46233
   O        1.58090        4.93145       -5.50205
   O        1.94447        5.49404       -1.86606
   O        5.80082        0.03070       -3.59425
   H        5.01657        0.64196       -3.59596
   H        2.04502        4.64748       -2.36795
   H        1.57211        4.29491       -4.74615
   H        3.04447        5.90439       -6.55893
   H        3.43024        5.56411       -4.85237
   H        3.43837        4.24007       -6.06007
   H        0.45375        6.87734       -1.61556
   H        0.39816        5.96617       -3.14436
   H       -0.07266        5.17741       -1.60685
   C        0.48624        1.93840       -0.84179
   H        0.88909        2.79344       -0.29176
   H        1.50233        1.44505       -0.76299
   H       -0.18663        1.38514       -0.18164
   H        6.26040       -1.74202       -4.51377
   H        4.54746       -1.52906       -4.07409
   H        5.24173       -0.62990       -5.46178
   C        1.48710       -0.59411       -5.04830
   N        1.78993        0.74762       -4.57677
   H        2.37476       -1.23144       -5.00042
   H        0.70133       -1.04092       -4.43307
   H        1.13688       -0.55811       -6.08360
   O       -0.26338        2.42084       -1.94647
   H        0.42432        2.73465       -2.58348
   H        3.10410        0.52946       -4.00840
   H        4.57815        1.71089       -3.50343
*