!B3LYP DEF2-TZVP OPT CPCM(CH2CL2) D4

* xyz 0 1
   C        3.91177        1.96573       -0.06586
   C        4.38298        0.66952       -0.07748
   C        3.18693       -0.17369       -0.14942
   C        2.45006        1.87505       -0.11572
   N        2.06136        0.66097       -0.18836
   C        1.53951        3.02176        0.03782
   C        0.19336        2.97742        0.05507
   N       -0.59659        1.88453       -0.07537
   C       -1.87730        2.32744       -0.04275
   C       -0.58827        4.09532        0.25459
   C       -1.89729        3.68472        0.18438
   C       -3.00125        1.59805       -0.15307
   C       -3.07442        0.13788       -0.25784
   N       -2.05429       -0.62928       -0.24798
   C       -3.95920       -1.93715        0.00448
   C       -4.32084       -0.61669       -0.14239
   C       -0.19782       -2.97969       -0.01878
   N        0.60618       -1.89197       -0.12111
   C        1.88868       -2.33461       -0.09685
   C        1.89476       -3.71029        0.01773
   C        0.57756       -4.11582        0.07327
   C        3.13878       -1.51461       -0.10699
   C       -1.68973       -3.01088        0.04834
   C       -2.49653       -1.94744       -0.07639
   H        4.50781        2.86774        0.00363
   H        5.42251        0.37562       -0.00723
   H        2.01921        3.98765        0.16552
   H       -0.24069        5.09704        0.46025
   H       -2.77542        4.29794        0.32852
   H       -3.95630        2.11192       -0.09379
   H       -4.64006       -2.76109        0.16923
   H       -5.32563       -0.21303       -0.11937
   H        2.76452       -4.34835        0.09087
   H        0.21965       -5.12882        0.19602
   H        4.08350       -2.04631       -0.03103
   H       -2.16104       -3.97385        0.22279
  Fe        0.00977       -0.00332       -0.09825
*